
Welcome to IBM(R) ILOG(R) CPLEX(R) Interactive Optimizer 22.1.1.0
  with Simplex, Mixed Integer & Barrier Optimizers
5725-A06 5725-A29 5724-Y48 5724-Y49 5724-Y54 5724-Y55 5655-Y21
Copyright IBM Corp. 1988, 2022.  All Rights Reserved.

Type 'help' for a list of available commands.
Type 'help' followed by a command name for more
information on commands.

CPLEX> Selected objective sense:  MINIMIZE
Selected objective  name:  00000000
Selected RHS        name:  RHS1
Selected bound      name:  BOUND
Problem 'ee.mps' read.
Read time = 0.02 sec. (3.17 ticks)
CPLEX> New value for time limit in seconds: 7200
CPLEX> New value for parallel optimization mode: -1
CPLEX> New value for default parallel thread count: 40
CPLEX> New value for mixed integer optimality gap tolerance: 1e-13
CPLEX> Version identifier: 22.1.1.0 | 2022-11-28 | 9160aff4d
CPXPARAM_Threads                                 40
CPXPARAM_Parallel                                -1
CPXPARAM_TimeLimit                               7200
CPXPARAM_MIP_Tolerances_MIPGap                   1e-13
Found incumbent of value 0.000000 after 0.00 sec. (0.31 ticks)
Tried aggregator 2 times.
MIP Presolve eliminated 184 rows and 2745 columns.
MIP Presolve modified 6090 coefficients.
Aggregator did 713 substitutions.
Reduced MIP has 3636 rows, 7840 columns, and 28953 nonzeros.
Reduced MIP has 7840 binaries, 0 generals, 0 SOSs, and 0 indicators.
Presolve time = 0.07 sec. (69.13 ticks)
Probing time = 0.03 sec. (5.35 ticks)
Tried aggregator 1 time.
Detecting symmetries...
Reduced MIP has 3636 rows, 7840 columns, and 28953 nonzeros.
Reduced MIP has 7840 binaries, 0 generals, 0 SOSs, and 0 indicators.
Presolve time = 0.03 sec. (22.10 ticks)
Probing time = 0.02 sec. (5.13 ticks)
Clique table members: 18788.
MIP emphasis: balance optimality and feasibility.
MIP search method: dynamic search.
Parallel mode: opportunistic, using up to 40 threads.
Root relaxation solution time = 0.11 sec. (89.89 ticks)

        Nodes                                         Cuts/
   Node  Left     Objective  IInf  Best Integer    Best Bound    ItCnt     Gap

*     0+    0                            0.0000  -1.54000e+13              --- 
*     0+    0                      -4.59000e+12  -1.54000e+13           235.51%
*     0+    0                      -4.80000e+12  -1.54000e+13           220.83%
*     0+    0                      -6.00000e+12  -1.54000e+13           156.67%
*     0+    0                      -6.99000e+12  -1.54000e+13           120.31%
      0     0  -1.53900e+13   130  -6.99000e+12  -1.53900e+13     2149  120.17%
*     0+    0                      -1.53900e+13  -1.53900e+13             0.00%
      0     0  -1.53900e+13   164  -1.53900e+13      Cuts: 92     2556    0.00%
      0     0  -1.53900e+13   266  -1.53900e+13     Cuts: 111     3045    0.00%
*     0+    0                      -1.53900e+13  -1.53900e+13             0.00%
      0     2  -1.53900e+13   266  -1.53900e+13  -1.53900e+13     3045    0.00%
Elapsed time = 2.63 sec. (1209.15 ticks, tree = 0.02 MB, solutions = 16)
*     7+   21                      -1.53900e+13  -1.53900e+13             0.00%
     46    14  -1.53900e+13   222  -1.53900e+13  -1.53900e+13     5345    0.00%
    150    98  -1.53900e+13   128  -1.53900e+13  -1.53900e+13   109169    0.00%
    347    86        cutoff        -1.53900e+13  -1.53900e+13    96393    0.00%
    645   137        cutoff        -1.53900e+13  -1.53900e+13   136078    0.00%
    867   156  -1.53900e+13   138  -1.53900e+13  -1.53900e+13   145716    0.00%
   1035   155  -1.53900e+13   210  -1.53900e+13  -1.53900e+13   141886    0.00%
   1201   295  -1.53900e+13   105  -1.53900e+13  -1.53900e+13   347078    0.00%
   1326   231  -1.53900e+13   290  -1.53900e+13  -1.53900e+13   207876    0.00%
   1461   358  -1.53900e+13    75  -1.53900e+13  -1.53900e+13   529501    0.00%
   2613   355  -1.53900e+13    74  -1.53900e+13  -1.53900e+13   561592    0.00%
Elapsed time = 8.42 sec. (4312.26 ticks, tree = 2.93 MB, solutions = 17)
   5976   964  -1.53900e+13    92  -1.53900e+13  -1.53900e+13   839815    0.00%
   8378  1418  -1.53900e+13    99  -1.53900e+13  -1.53900e+13  1191285    0.00%
  10362  1305        cutoff        -1.53900e+13  -1.53900e+13   994486    0.00%
  11823  1293  -1.53900e+13   108  -1.53900e+13  -1.53900e+13  1134300    0.00%
  13165  1472  -1.53900e+13   148  -1.53900e+13  -1.53900e+13  1294208    0.00%
  14225  1522        cutoff        -1.53900e+13  -1.53900e+13  1359525    0.00%

Performing restart 1

Repeating presolve.
Tried aggregator 2 times.
MIP Presolve eliminated 29 rows and 19 columns.
MIP Presolve modified 1865 coefficients.
Aggregator did 3 substitutions.
Reduced MIP has 3528 rows, 7818 columns, and 28285 nonzeros.
Reduced MIP has 7818 binaries, 0 generals, 0 SOSs, and 0 indicators.
Presolve time = 0.05 sec. (39.88 ticks)
Tried aggregator 2 times.
MIP Presolve eliminated 10 rows and 39 columns.
MIP Presolve modified 28 coefficients.
Aggregator did 17 substitutions.
Reduced MIP has 3501 rows, 7756 columns, and 28059 nonzeros.
Reduced MIP has 7756 binaries, 0 generals, 0 SOSs, and 0 indicators.
Presolve time = 0.06 sec. (54.30 ticks)
Represolve time = 0.24 sec. (152.94 ticks)
  14315     0  -1.53900e+13   301  -1.53900e+13      Cuts: 59  1606962    0.00%
  14315     0  -1.53900e+13   402  -1.53900e+13      Cuts: 66  1607759    0.00%
  14315     0  -1.53900e+13   369  -1.53900e+13      Cuts: 82  1608382    0.00%
  14315     0  -1.53900e+13   424  -1.53900e+13      Cuts: 72  1609021    0.00%
  14315     0  -1.53900e+13   421  -1.53900e+13      Cuts: 79  1610136    0.00%
  14315    12    infeasible        -1.53900e+13  -1.53900e+13  1624494    0.00%
  14815    30  -1.53900e+13    62  -1.53900e+13  -1.53900e+13  1646824    0.00%
  14957    31  -1.53900e+13   163  -1.53900e+13  -1.53900e+13  1677337    0.00%

GUB cover cuts applied:  13
Clique cuts applied:  6
Cover cuts applied:  273
Mixed integer rounding cuts applied:  17
Zero-half cuts applied:  62
Lift and project cuts applied:  2
Gomory fractional cuts applied:  35

Root node processing (before b&c):
  Real time             =    1.43 sec. (1195.58 ticks)
Parallel b&c, 40 threads:
  Real time             =   23.53 sec. (15730.94 ticks)
  Sync time (average)   =    4.39 sec.
  Wait time (average)   =    0.14 sec.
                          ------------
Total (root+branch&cut) =   24.96 sec. (16926.53 ticks)

Solution pool: 22 solutions saved.

MIP - Integer optimal solution:  Objective = -1.5389998688e+13
Solution time =   25.07 sec.  Iterations = 1704459  Nodes = 15013
Deterministic time = 16926.56 ticks  (675.13 ticks/sec)

CPLEX> Solution 'p23' written to file 'ee.sol'.
CPLEX> 